831830
0,47,79,37,35,98,67,71,54,43,90,52,7,88,84,2,4,63,26,1,34,96,41,66,81,57,60,15,14,82,49,87,75,86,44,85,80,3,65,6,13,38,91,83,72,21,42,23,51,64,53,97,22,10,27,45,33,70,89,58,18,11,16,25,93,39,28,78,50,77,24,94,46,56,32,8,19,20,95,29,76,9,55,17,40,68,74,5,48,92,61,30,59,62,12,31,69,73,36,0